<number of tasks>
10

<cycle time>
30

<task times>
1 2
2 3
3 2
4 4
5 3
6 5
7 2
8 3
9 4
10 3

<precedence relations>
2,1
3,1
4,2
5,2
6,3
7,3
8,4
9,5
10,6

<setup times forward>
1,2:1
1,3:1
2,4:2
2,5:1
3,6:2
3,7:1
4,8:2
4,9:1
5,8:1
5,9:2
6,9:2
6,10:1
7,8:1
7,9:1
8,10:2
9,10:1
3,2:1
5,3:1
6,5:2
9,6:2

<setup times backward>
2,1:2
3,1:2
3,2:1
4,2:2
5,2:3
6,3:2
7,3:3
8,4:2
9,5:2
10,6:2
7,6:1
8,7:2
9,8:2
10,9:2
5,4:2
6,5:2
2,4:2
4,5:2
1,7:2
2,8:2
3,9:3
4,10:2
